asp/input/in_50_25_6_2.lp
#const n = 50.
#const k = 25.
#const h = 6.
tile(1,10,6).
tile(2,24,17).
tile(3,24,25).
tile(4,16,22).
tile(5,20,18).
tile(6,19,6).
tile(7,23,1).
tile(8,3,8).
tile(9,23,7).
tile(10,17,17).
tile(11,7,14).
tile(12,1,18).
tile(13,20,11).
tile(14,19,8).
tile(15,11,8).
tile(16,8,3).
tile(17,13,1).
tile(18,12,22).
tile(19,25,14).
tile(20,4,12).
tile(21,3,3).
tile(22,11,8).
tile(23,15,16).
tile(24,12,13).
tile(25,7,25).
tile(26,25,4).
tile(27,17,22).
tile(28,11,8).
tile(29,4,17).
tile(30,3,18).
tile(31,10,25).
tile(32,15,15).
tile(33,19,25).
tile(34,22,23).
tile(35,17,23).
tile(36,23,13).
tile(37,7,24).
tile(38,15,9).
tile(39,13,20).
tile(40,20,17).
tile(41,13,13).
tile(42,3,19).
tile(43,20,25).
tile(44,20,17).
tile(45,23,14).
tile(46,9,14).
tile(47,5,15).
tile(48,21,14).
tile(49,21,3).
tile(50,23,6).
