instances/in_50_25_6_2.dzn
n = 50;
k = 25;
h = 6;
tiles = array2d(1..n, 1..2,
[ 10,6
, 24,17
, 24,25
, 16,22
, 20,18
, 19,6
, 23,1
, 3,8
, 23,7
, 17,17
, 7,14
, 1,18
, 20,11
, 19,8
, 11,8
, 8,3
, 13,1
, 12,22
, 25,14
, 4,12
, 3,3
, 11,8
, 15,16
, 12,13
, 7,25
, 25,4
, 17,22
, 11,8
, 4,17
, 3,18
, 10,25
, 15,15
, 19,25
, 22,23
, 17,23
, 23,13
, 7,24
, 15,9
, 13,20
, 20,17
, 13,13
, 3,19
, 20,25
, 20,17
, 23,14
, 9,14
, 5,15
, 21,14
, 21,3
, 23,6
]);